2572 8366
4363 1072
2257 6264
8474 5496
8141 6540
2486 7121
8734 2371
28 2975
181 9019
6365 3031
5889 643
1740 7261
6288 6015
4444 7771
7772 7277
7797 4036
6927 446
2352 9414
4202 104
3772 3272
3693 3128
5587 3386
5922 5466
9777 9842
953 583
7086 4391
3942 3274
8829 8465
8403 1474
2001 1156
6604 694
6424 2902
2282 6816
9611 9434
4660 7910
624 7546
3446 4214
5339 9098
4122 5257
7245 5065
1734 6416
336 196
8702 9037
5399 4780
5582 9237
8195 3003
3150 3260
7651 6320
2091 7547
2695 4812
